NAME : X_38_seed_123_id_19
TYPE : CVRP
DIMENSION : 275
EDGE_WEIGHT_TYPE : EUC_2D
CAPACITY : 10
NODE_COORD_SECTION
1	832	435
2	897	881
3	432	948
4	630	667
5	463	976
6	638	637
7	340	853
8	655	683
9	622	611
10	419	959
11	888	903
12	663	670
13	601	696
14	854	900
15	594	634
16	389	955
17	459	941
18	400	927
19	659	603
20	929	853
21	438	963
22	436	970
23	944	851
24	623	617
25	898	975
26	378	974
27	885	819
28	832	835
29	960	866
30	391	913
31	505	478
32	461	997
33	327	835
34	563	632
35	874	810
36	603	616
37	339	831
38	325	848
39	860	887
40	798	915
41	875	990
42	883	907
43	845	872
44	301	995
45	320	858
46	424	925
47	723	617
48	265	879
49	433	956
50	927	960
51	880	888
52	647	814
53	552	744
54	447	945
55	440	883
56	387	986
57	973	892
58	921	858
59	511	961
60	580	642
61	624	679
62	896	820
63	938	876
64	409	981
65	421	996
66	591	670
67	451	925
68	406	933
69	816	898
70	653	838
71	856	865
72	449	978
73	468	642
74	876	868
75	646	650
76	431	925
77	633	557
78	423	958
79	906	840
80	892	925
81	618	676
82	439	930
83	949	792
84	941	915
85	993	794
86	382	876
87	422	954
88	932	879
89	499	939
90	432	933
91	890	857
92	367	957
93	921	891
94	449	952
95	588	846
96	603	763
97	987	947
98	916	879
99	895	880
100	716	700
101	806	925
102	387	944
103	649	680
104	888	904
105	544	489
106	883	847
107	655	635
108	929	892
109	667	739
110	674	657
111	623	635
112	912	992
113	688	590
114	933	805
115	872	878
116	568	997
117	940	955
118	927	857
119	898	804
120	886	845
121	919	892
122	661	712
123	575	677
124	358	912
125	644	658
126	409	912
127	912	834
128	841	822
129	863	817
130	330	935
131	506	916
132	774	761
133	319	953
134	888	910
135	739	637
136	428	563
137	891	914
138	491	975
139	602	640
140	366	949
141	929	859
142	267	987
143	354	770
144	627	711
145	890	985
146	663	651
147	897	911
148	482	930
149	789	897
150	993	888
151	623	477
152	941	857
153	447	930
154	377	884
155	639	590
156	736	714
157	640	684
158	669	654
159	498	656
160	473	929
161	430	901
162	443	884
163	343	939
164	890	905
165	349	944
166	397	894
167	650	722
168	616	728
169	660	752
170	412	953
171	863	839
172	547	832
173	496	967
174	347	869
175	475	995
176	919	773
177	500	871
178	907	886
179	557	581
180	694	692
181	936	920
182	889	920
183	786	612
184	412	940
185	510	938
186	945	889
187	746	713
188	648	662
189	372	996
190	921	875
191	610	786
192	428	509
193	460	866
194	855	915
195	661	726
196	585	737
197	646	813
198	335	985
199	806	850
200	664	599
201	906	847
202	895	932
203	593	674
204	326	855
205	605	754
206	950	910
207	907	924
208	589	667
209	691	731
210	783	659
211	545	676
212	976	879
213	587	990
214	679	650
215	627	685
216	618	744
217	637	810
218	883	773
219	635	725
220	454	815
221	923	827
222	451	975
223	614	708
224	633	672
225	429	952
226	802	654
227	652	656
228	671	547
229	888	885
230	470	962
231	941	878
232	403	913
233	557	653
234	420	836
235	494	917
236	791	726
237	623	673
238	652	637
239	708	726
240	696	681
241	466	904
242	424	878
243	314	998
244	231	972
245	815	934
246	669	626
247	915	759
248	661	664
249	875	907
250	419	990
251	681	583
252	634	653
253	616	619
254	924	708
255	351	919
256	862	969
257	955	746
258	721	701
259	449	879
260	624	699
261	931	768
262	849	778
263	360	957
264	664	678
265	327	880
266	840	831
267	672	690
268	997	865
269	664	665
270	423	931
271	715	625
272	512	876
273	480	926
274	822	847
275	352	920
DEMAND_SECTION
1	0
2	1
3	1
4	1
5	1
6	1
7	1
8	1
9	1
10	1
11	1
12	1
13	1
14	1
15	1
16	1
17	1
18	1
19	1
20	1
21	1
22	1
23	1
24	1
25	1
26	1
27	1
28	1
29	1
30	1
31	1
32	1
33	1
34	1
35	1
36	1
37	1
38	1
39	1
40	1
41	1
42	1
43	1
44	1
45	1
46	1
47	1
48	1
49	1
50	1
51	1
52	1
53	1
54	1
55	1
56	1
57	1
58	1
59	1
60	1
61	1
62	1
63	1
64	1
65	1
66	1
67	1
68	1
69	1
70	1
71	1
72	1
73	1
74	1
75	1
76	1
77	1
78	1
79	1
80	1
81	1
82	1
83	1
84	1
85	1
86	1
87	1
88	1
89	1
90	1
91	1
92	1
93	1
94	1
95	1
96	1
97	1
98	1
99	1
100	1
101	1
102	1
103	1
104	1
105	1
106	1
107	1
108	1
109	1
110	1
111	1
112	1
113	1
114	1
115	1
116	1
117	1
118	1
119	1
120	1
121	1
122	1
123	1
124	1
125	1
126	1
127	1
128	1
129	1
130	1
131	1
132	1
133	1
134	1
135	1
136	1
137	1
138	1
139	1
140	1
141	1
142	1
143	1
144	1
145	1
146	1
147	1
148	1
149	1
150	1
151	1
152	1
153	1
154	1
155	1
156	1
157	1
158	1
159	1
160	1
161	1
162	1
163	1
164	1
165	1
166	1
167	1
168	1
169	1
170	1
171	1
172	1
173	1
174	1
175	1
176	1
177	1
178	1
179	1
180	1
181	1
182	1
183	1
184	1
185	1
186	1
187	1
188	1
189	1
190	1
191	1
192	1
193	1
194	1
195	1
196	1
197	1
198	1
199	1
200	1
201	1
202	1
203	1
204	1
205	1
206	1
207	1
208	1
209	1
210	1
211	1
212	1
213	1
214	1
215	1
216	1
217	1
218	1
219	1
220	1
221	1
222	1
223	1
224	1
225	1
226	1
227	1
228	1
229	1
230	1
231	1
232	1
233	1
234	1
235	1
236	1
237	1
238	1
239	1
240	1
241	1
242	1
243	1
244	1
245	1
246	1
247	1
248	1
249	1
250	1
251	1
252	1
253	1
254	1
255	1
256	1
257	1
258	1
259	1
260	1
261	1
262	1
263	1
264	1
265	1
266	1
267	1
268	1
269	1
270	1
271	1
272	1
273	1
274	1
275	1
DEPOT_SECTION
1
-1
EOF
